Gurobi Optimizer version 9.1.2 build v9.1.2rc0 (linux64)
Thread count: 36 physical cores, 72 logical processors, using up to 32 threads
Optimize a model with 12 rows, 57 columns and 590 nonzeros
Model fingerprint: 0xf32eec78
Model has 47 quadratic constraints
Coefficient statistics:
  Matrix range     [2e-05, 3e+00]
  QMatrix range    [1e+00, 1e+00]
  QLMatrix range   [1e+00, 1e+00]
  Objective range  [8e-03, 7e-01]
  Bounds range     [1e+00, 1e+00]
  RHS range        [1e+00, 1e+00]
Presolve removed 9 rows and 0 columns

Continuous model is non-convex -- solving as a MIP.

Presolve removed 9 rows and 0 columns
Presolve time: 0.00s
Presolved: 189 rows, 57 columns, 443 nonzeros
Presolved model has 47 bilinear constraint(s)
Variable types: 57 continuous, 0 integer (0 binary)

Root relaxation: objective -1.743721e+00, 44 iterations, 0.00 seconds

    Nodes    |    Current Node    |     Objective Bounds      |     Work
 Expl Unexpl |  Obj  Depth IntInf | Incumbent    BestBd   Gap | It/Node Time

     0     0   -1.74372    0   38          -   -1.74372      -     -    0s
H    0     0                       0.6147548   -1.74372   384%     -    0s
     0     0   -1.64739    0    1    0.61475   -1.64739   368%     -    0s
H    0     0                      -1.6450460   -1.64739  0.14%     -    0s
     0     0     cutoff    0        -1.64505   -1.64505  0.00%     -    0s

Cutting planes:
  RLT: 25
  BQP: 3

Explored 1 nodes (76 simplex iterations) in 0.01 seconds
Thread count was 32 (of 72 available processors)

Solution count 2: -1.64505 0.614755 
No other solutions better than -1.64505

Optimal solution found (tolerance 1.00e-04)
Best objective -1.645045978473e+00, best bound -1.645045978473e+00, gap 0.0000%

User-callback calls 78, time in user-callback 0.00 sec
Gurobi Optimizer version 9.1.2 build v9.1.2rc0 (linux64)
Thread count: 36 physical cores, 72 logical processors, using up to 32 threads
Optimize a model with 60 rows, 312 columns and 16100 nonzeros
Model fingerprint: 0x83629942
Model has 262 quadratic constraints
Coefficient statistics:
  Matrix range     [4e-07, 7e+00]
  QMatrix range    [1e+00, 1e+00]
  QLMatrix range   [1e+00, 1e+00]
  Objective range  [4e-03, 1e+00]
  Bounds range     [1e+00, 1e+00]
  RHS range        [1e+00, 1e+00]
Presolve removed 16 rows and 0 columns

Continuous model is non-convex -- solving as a MIP.

Presolve removed 16 rows and 0 columns
Presolve time: 0.01s
Presolved: 1080 rows, 312 columns, 13136 nonzeros
Presolved model has 262 bilinear constraint(s)
Variable types: 312 continuous, 0 integer (0 binary)

Root relaxation: objective -2.321843e+01, 331 iterations, 0.02 seconds

    Nodes    |    Current Node    |     Objective Bounds      |     Work
 Expl Unexpl |  Obj  Depth IntInf | Incumbent    BestBd   Gap | It/Node Time

     0     0  -23.21843    0  164          -  -23.21843      -     -    0s
     0     0  -22.35185    0   65          -  -22.35185      -     -    0s
     0     0  -22.30933    0   52          -  -22.30933      -     -    0s
     0     0  -22.27251    0   67          -  -22.27251      -     -    0s
     0     0  -22.27149    0   67          -  -22.27149      -     -    0s
     0     0  -22.25096    0   62          -  -22.25096      -     -    0s
     0     0  -22.25093    0   62          -  -22.25093      -     -    0s
     0     0  -22.24234    0   65          -  -22.24234      -     -    0s
     0     0  -22.24196    0   65          -  -22.24196      -     -    0s
     0     0  -22.24111    0   65          -  -22.24111      -     -    0s
     0     0  -22.24091    0   65          -  -22.24091      -     -    0s
     0     0  -22.24083    0   65          -  -22.24083      -     -    0s
     0     0  -22.24081    0   65          -  -22.24081      -     -    0s
H    0     0                     -21.3743197  -22.24081  4.05%     -    0s
     0     2  -22.24081    0   65  -21.37432  -22.24081  4.05%     -    0s
* 1189   769              48     -21.4342091  -21.77647  1.60%  44.2    1s
* 1651  1022              55     -21.4681949  -21.74107  1.27%  40.4    1s
* 2595  1561              47     -21.5180154  -21.74107  1.04%  34.4    2s
* 5732   356              57     -21.5183392  -21.74107  1.04%  33.0    3s
* 5733   356              57     -21.5183569  -21.74107  1.03%  33.0    3s
* 5903   385              57     -21.5184031  -21.74107  1.03%  32.5    4s
* 6362   487              63     -21.5184628  -21.74107  1.03%  31.4    4s
* 6366   487              64     -21.5184671  -21.74107  1.03%  31.3    4s
* 6456   535              56     -21.5185106  -21.74107  1.03%  31.1    4s
* 6513   535              63     -21.5188743  -21.74107  1.03%  31.0    4s
* 6514   535              63     -21.5188819  -21.74107  1.03%  31.0    4s
* 6713   631              63     -21.5188876  -21.74107  1.03%  30.5    4s
* 6989   734              70     -21.5189048  -21.74107  1.03%  29.9    4s
* 7087   876              58     -21.5189889  -21.74107  1.03%  29.8    4s
* 7090   876              58     -21.5190084  -21.74107  1.03%  29.8    4s
* 7091   876              58     -21.5190086  -21.74107  1.03%  29.8    4s
* 7245  1037              56     -21.5194241  -21.74107  1.03%  29.4    4s
* 7380  1037              54     -21.5195021  -21.74107  1.03%  29.2    4s
* 7651  1238              54     -21.5195432  -21.74107  1.03%  28.6    4s
* 7747  1451              64     -21.5197146  -21.74107  1.03%  28.5    4s
* 7748  1451              64     -21.5197285  -21.74107  1.03%  28.5    4s
* 7750  1451              64     -21.5197521  -21.74107  1.03%  28.5    4s
* 7944  1451              53     -21.5293617  -21.74107  0.98%  28.0    4s
* 7946  1451              54     -21.5293773  -21.74107  0.98%  28.0    4s
* 8087  1606              65     -21.6434392  -21.74107  0.45%  27.8    4s
* 9450  1627              63     -21.6442425  -21.71922  0.35%  25.9    4s
* 9451  1627              62     -21.6444025  -21.71922  0.35%  25.9    4s
* 9710  1675              68     -21.6445669  -21.71922  0.34%  25.6    4s
* 9711  1675              67     -21.6445819  -21.71922  0.34%  25.6    4s
* 9761  1675              64     -21.6461443  -21.71922  0.34%  25.5    4s
  9878  1714     cutoff   39       -21.64614  -21.70868  0.29%  25.3    5s
*10250  1714              63     -21.6461851  -21.70868  0.29%  24.8    5s
*10366  1783              66     -21.6462291  -21.69834  0.24%  24.6    5s
*10612  1783              58     -21.6463741  -21.69834  0.24%  24.2    5s
*10613  1783              58     -21.6463804  -21.69834  0.24%  24.2    5s
*10879  1757              74     -21.6472689  -21.67565  0.13%  23.9    5s
*10880  1757              74     -21.6472692  -21.67565  0.13%  23.9    5s
*11118  1711              66     -21.6477755  -21.66849  0.10%  23.6    5s
*11119  1711              66     -21.6477774  -21.66849  0.10%  23.6    5s
*11790  1545              60     -21.6479107  -21.65980  0.05%  22.6    5s
*12290  1333              58     -21.6479277  -21.65671  0.04%  21.8    5s
*12884  1186              61     -21.6479493  -21.65494  0.03%  21.0    5s
*12887  1186              61     -21.6479627  -21.65494  0.03%  21.0    5s
*13402  1186              59     -21.6479686  -21.65494  0.03%  20.3    5s
*13843   935              64     -21.6479805  -21.65382  0.03%  19.7    5s
*13844   935              64     -21.6479823  -21.65382  0.03%  19.7    5s
*13870   935              68     -21.6479832  -21.65382  0.03%  19.7    5s
*13872   935              67     -21.6479842  -21.65382  0.03%  19.7    5s
*14115   935              66     -21.6479848  -21.65382  0.03%  19.4    5s
*14128   935              63     -21.6479852  -21.65382  0.03%  19.4    5s
*14900   413              58     -21.6479857  -21.64846  0.00%  18.5    5s

Explored 15271 nodes (276467 simplex iterations) in 5.67 seconds
Thread count was 32 (of 72 available processors)

Solution count 10: -21.648 -21.648 -21.648 ... -21.6479

Optimal solution found (tolerance 1.00e-04)
Best objective -2.164798568293e+01, best bound -2.164845742338e+01, gap 0.0022%

User-callback calls 31417, time in user-callback 0.01 sec



objective value: -21.647985682932138
objective bound: -21.648457423384357
x_opt: [0.9714816991080394, 1.0, 0.0, 0.31905640225684534, 0.0, 0.0, 1.0, 0.0, 0.0, 0.0, 1.0, 0.0, 1.0, 1.0, 0.07097205802433858, 1.0, 0.0, 1.0, 0.0, 0.0, 1.0, 0.7282492261005794, 0.0, 0.842851736786778, 0.0, 0.8656464311760067, 0.0, 1.0, 0.0, 0.0, 1.0, 0.9099109732068724, 0.0, 0.3705844743472769, 1.0, 1.0, 0.052633038815498585, 1.0, 0.0, 0.790402578920109, 1.0, 0.0, 1.0, 0.0, 0.0, 0.0800524937691066, 0.9443699725454637, 0.0, 0.9999999999999999, 0.18845204411157776]
GUROBI solution time: 5.665434122085571




